  9
  -11.394339360000000        1.0000000000000000      !
 C         -1.2751130217        0.2515176313       -0.0157789953
 C          0.0145358456       -0.5610242770        0.0327342736
 O          1.1687687175        0.2414228015       -0.0563271982
 H         -2.1345990101       -0.4129465020       -0.0062797780
 H         -1.3036644500        0.8523850481       -0.9215889794
 H         -1.3400640216        0.9160923771        0.8447820944
 H          0.0680309196       -1.2378351333       -0.8229469300
 H          0.0398876123       -1.1639869032        0.9531775526
 H          1.1393041444        0.9022165949        0.6449168416
