  9

 C          1.0949000000       -0.0399000000        0.0248000000
 C          2.6094000000       -0.0447000000        0.0221000000
 O          3.0907000000       -0.6370000000       -1.1755000000
 H          0.7080000000        0.4285000000        0.9341000000
 H          0.7045000000       -1.0610000000       -0.0389000000
 H          0.7098000000        0.5030000000       -0.8446000000
 H          3.0017000000       -0.6075000000        0.8746000000
 H          2.9956000000        0.9773000000        0.0764000000
 H          2.7516000000       -1.5478000000       -1.2090000000
