  9
        -11.39433937
 C         -1.2750071548       -0.2515739022       -0.0157788469
 C          0.0145612475        0.5611590175        0.0327957990
 O          1.1686669373       -0.2414866448       -0.0563156868
 H         -2.1344727250        0.4130195596       -0.0069786140
 H         -1.3403823980       -0.9162681175        0.8448381319
 H         -1.3032425873       -0.8522936935       -0.9216315939
 H          0.0396162264        1.1640651978        0.9530893588
 H          0.0684140299        1.2381316762       -0.8227714220
 H          1.1390140290       -0.9025017495        0.6445973023
