  9

 C          0.9331000000       -0.0233000000       -0.0633000000
 C          2.4477000000       -0.0265000000       -0.0589000000
 O          2.9290000000       -1.2854000000        0.3888000000
 H          0.5463000000        0.9346000000       -0.4218000000
 H          0.5428000000       -0.2064000000        0.9432000000
 H          0.5480000000       -0.8231000000       -0.7045000000
 H          2.8400000000        0.7540000000        0.6001000000
 H          2.8339000000        0.1472000000       -1.0675000000
 H          2.5898000000       -1.4255000000        1.2894000000
