  9
  -11.394339360000000        1.0000000000000000      !
 C         -1.2749131555        0.2514973059        0.0158107927
 C          0.0146661796       -0.5612552340       -0.0327789525
 O          1.1684884496        0.2415806069        0.0563144571
 H         -1.3406518469        0.9166398479       -0.8443191139
 H         -1.3032051922        0.8519931630        0.9216898175
 H         -2.1342210875       -0.4130573134        0.0066931645
 H          0.0401349119       -1.1631797230       -0.9537542103
 H          0.0689635587       -1.2388535936        0.8223341411
 H          1.1383889403        0.9028725104       -0.6443488580
