  9

 C          0.9569000000       -0.0541000000       -0.0697000000
 C          2.4715000000       -0.0519000000       -0.0747000000
 O          2.9528000000        1.0857000000       -0.7755000000
 H          0.5701000000       -0.9161000000        0.4810000000
 H          0.5666000000       -0.0853000000       -1.0923000000
 H          0.5718000000        0.8619000000        0.3902000000
 H          2.8638000000       -0.9529000000       -0.5561000000
 H          2.8577000000       -0.0112000000        0.9480000000
 H          2.6136000000        1.0346000000       -1.6854000000
