78
Burette MDSmooth frame 1
Fe -2.902525 -1.261186 -0.959042
Mn 1.315847 -0.227590 1.257345
P -0.295405 0.921578 0.138927
O 1.473818 1.859894 3.342092
O -0.522519 -1.777306 2.957743
N 1.362388 -1.644520 -0.297274
N 2.869177 0.522864 0.115577
C -1.210944 -0.105627 -1.071908
C -0.899287 -1.499522 -1.378380
C -1.708042 -1.873051 -2.515160
H -1.728945 -2.862498 -2.989118
C -2.516772 -0.748957 -2.903789
H -3.252248 -0.734518 -3.719392
C -2.222783 0.340127 -2.014046
H -2.677675 1.338234 -2.048597
C -3.415367 -1.701376 0.988486
H -2.751470 -1.622150 1.858637
C -3.569260 -2.862630 0.153305
H -3.047280 -3.820979 0.277374
C -4.508534 -2.539953 -0.890468
H -4.824584 -3.207210 -1.703535
C -4.937985 -1.178088 -0.697178
H -5.639444 -0.626480 -1.337439
C -4.260336 -0.657898 0.461881
H -4.355385 0.358330 0.865899
C 0.391322 2.311457 -0.892202
C 0.913378 3.440588 -0.216155
H 0.853455 3.500540 0.882754
C 1.499783 4.495697 -0.933913
H 1.893060 5.370968 -0.392707
C 1.585912 4.434866 -2.338030
H 2.046163 5.262336 -2.900884
C 1.081228 3.312513 -3.016550
H 1.142678 3.255952 -4.115089
C 0.487137 2.256070 -2.299405
H 0.083513 1.391040 -2.847679
C -1.626524 1.822938 1.083127
C -1.952920 1.455425 2.406334
H -1.400473 0.650750 2.910469
C -2.990110 2.109791 3.096307
H -3.228774 1.809976 4.129042
C -3.714397 3.141869 2.474882
H -4.524835 3.654836 3.016607
C -3.391182 3.522093 1.159232
H -3.946219 4.335538 0.665363
C -2.352579 2.872047 0.470771
H -2.099224 3.197040 -0.550260
C 0.117659 -2.375283 -0.648965
H -0.326819 -2.668092 0.324194
C 2.063757 -1.120427 -1.474368
H 2.541867 -1.921549 -2.085096
H 1.356582 -0.602080 -2.171386
C 3.101202 -0.112870 -1.067066
C 3.734651 1.491234 0.512916
C 4.859477 1.856053 -0.233718
C 5.112689 1.192127 -1.446584
C 4.220202 0.195773 -1.862942
C 0.408973 -3.684272 -1.410900
H -0.507314 -4.303599 -1.492421
H 0.784985 -3.503029 -2.438991
H 1.168009 -4.268688 -0.852988
C 1.421132 1.022510 2.511070
C 0.168695 -1.139182 2.242693
H 2.632630 -0.858350 2.145486
H 2.507429 -1.616642 1.760723
H 2.143302 -2.502094 0.331444
O 2.783120 -3.171048 1.099649
C 4.144129 -3.265306 0.752665
H 4.276991 -3.477606 -0.341694
H 4.688899 -2.297518 0.935107
H 4.378483 -0.351356 -2.804408
H 5.526631 2.645896 0.141194
H 3.513458 1.981283 1.472073
C 4.839370 -4.369880 1.553656
H 4.353505 -5.351175 1.366058
H 5.913411 -4.455578 1.281567
H 4.774324 -4.164613 2.643601
H 5.993476 1.446170 -2.055944
78
Burette MDSmooth frame 2
Fe -2.903755 -1.260573 -0.960158
Mn 1.315228 -0.228604 1.255820
P -0.296026 0.921289 0.138154
O 1.473980 1.858046 3.341340
O -0.523097 -1.778639 2.955971
N 1.359536 -1.639897 -0.301020
N 2.868478 0.522005 0.114045
C -1.211984 -0.105280 -1.072902
C -0.900641 -1.499114 -1.379970
C -1.709682 -1.872056 -2.516739
H -1.730856 -2.861316 -2.991075
C -2.518279 -0.747665 -2.904780
H -3.253908 -0.732776 -3.720237
C -2.223921 0.341022 -2.014674
H -2.678636 1.339225 -2.048753
C -3.416306 -1.701420 0.987297
H -2.752229 -1.622651 1.857351
C -3.570572 -2.862323 0.151698
H -3.048744 -3.820815 0.275298
C -4.509985 -2.539072 -0.891770
H -4.826313 -3.205957 -1.705033
C -4.939150 -1.177203 -0.697873
H -5.640629 -0.625220 -1.337787
C -4.261184 -0.657585 0.461256
H -4.355970 0.358504 0.865684
C 0.390759 2.311440 -0.892570
C 0.913151 3.440214 -0.216188
H 0.853449 3.499753 0.882755
C 1.499613 4.495492 -0.933651
H 1.893153 5.370481 -0.392183
C 1.585463 4.435187 -2.337807
H 2.045758 5.262789 -2.900430
C 1.080443 3.313188 -3.016663
H 1.141674 3.257040 -4.115235
C 0.486296 2.256578 -2.299812
H 0.082408 1.391834 -2.848342
C -1.626799 1.822528 1.082955
C -1.953010 1.454565 2.406082
H -1.400615 0.649595 2.909801
C -2.989948 2.108854 3.096505
H -3.228470 1.808684 4.129170
C -3.714164 3.141304 2.475617
H -4.524405 3.654210 3.017694
C -3.391131 3.521976 1.160052
H -3.946113 4.335712 0.666603
C -2.352779 2.872006 0.471143
H -2.099559 3.197346 -0.549811
C 0.119647 -2.371985 -0.651084
H -0.328061 -2.666764 0.322046
C 2.059095 -1.120524 -1.474695
H 2.540302 -1.919817 -2.087503
H 1.361955 -0.596723 -2.183137
C 3.098481 -0.113313 -1.068885
C 3.734205 1.490063 0.511592
C 4.858955 1.854964 -0.235116
C 5.111814 1.191460 -1.448286
C 4.219065 0.195431 -1.864857
C 0.407211 -3.684089 -1.413583
H -0.509206 -4.303213 -1.496848
H 0.783061 -3.502519 -2.441675
H 1.166243 -4.270535 -0.857725
C 1.420982 1.020992 2.510006
C 0.168095 -1.140362 2.239355
H 2.642206 -0.826409 2.165371
H 2.484904 -1.554250 1.778766
H 2.227761 -2.590532 0.405866
O 2.780240 -3.180663 1.095011
C 4.146212 -3.266637 0.746065
H 4.273790 -3.478542 -0.345035
H 4.682802 -2.297342 0.933829
H 4.377066 -0.351364 -2.806564
H 5.526325 2.644540 0.139973
H 3.513285 1.979783 1.470979
C 4.836367 -4.371649 1.549862
H 4.351965 -5.352780 1.360297
H 5.910344 -4.454079 1.277543
H 4.771567 -4.166791 2.639898
H 5.992531 1.445577 -2.057716
78
Burette MDSmooth frame 3
Fe -2.905630 -1.259639 -0.961858
Mn 1.314285 -0.230150 1.253496
P -0.296972 0.920849 0.136975
O 1.474226 1.855229 3.340195
O -0.523978 -1.780670 2.953271
N 1.355191 -1.632852 -0.306728
N 2.867412 0.520697 0.111710
C -1.213569 -0.104752 -1.074416
C -0.902705 -1.498491 -1.382394
C -1.712180 -1.870539 -2.519146
H -1.733769 -2.859514 -2.994056
C -2.520576 -0.745695 -2.906290
H -3.256438 -0.730122 -3.721523
C -2.225655 0.342385 -2.015631
H -2.680101 1.340735 -2.048991
C -3.417738 -1.701487 0.985486
H -2.753386 -1.623415 1.855392
C -3.572570 -2.861855 0.149250
H -3.050975 -3.820565 0.272135
C -4.512197 -2.537729 -0.893754
H -4.828947 -3.204048 -1.707317
C -4.940924 -1.175856 -0.698932
H -5.642436 -0.623301 -1.338317
C -4.262477 -0.657108 0.460305
H -4.356861 0.358769 0.865357
C 0.389901 2.311413 -0.893131
C 0.912805 3.439643 -0.216238
H 0.853439 3.498553 0.882756
C 1.499353 4.495179 -0.933252
H 1.893295 5.369740 -0.391384
C 1.584778 4.435675 -2.337468
H 2.045141 5.263479 -2.899737
C 1.079248 3.314218 -3.016835
H 1.140143 3.258698 -4.115457
C 0.485013 2.257352 -2.300433
H 0.080725 1.393043 -2.849353
C -1.627219 1.821904 1.082693
C -1.953148 1.453254 2.405698
H -1.400831 0.647834 2.908783
C -2.989702 2.107426 3.096807
H -3.228008 1.806716 4.129364
C -3.713810 3.140442 2.476737
H -4.523750 3.653255 3.019351
C -3.391053 3.521797 1.161303
H -3.945950 4.335978 0.668494
C -2.353083 2.871943 0.471709
H -2.100069 3.197812 -0.549127
C 0.122675 -2.366960 -0.654313
H -0.329954 -2.664742 0.318774
C 2.051991 -1.120672 -1.475193
H 2.537916 -1.917179 -2.091170
H 1.370141 -0.588560 -2.201044
C 3.094334 -0.113987 -1.071657
C 3.733525 1.488279 0.509574
C 4.858160 1.853305 -0.237247
C 5.110481 1.190444 -1.450879
C 4.217333 0.194909 -1.867776
C 0.404527 -3.683811 -1.417671
H -0.512090 -4.302624 -1.503593
H 0.780128 -3.501741 -2.445766
H 1.163552 -4.273350 -0.864945
C 1.420752 1.018679 2.508385
C 0.167182 -1.142160 2.234269
H 2.656798 -0.777736 2.195672
H 2.450580 -1.459178 1.806259
H 2.356462 -2.725294 0.519271
O 2.775851 -3.195314 1.087944
C 4.149387 -3.268666 0.736007
H 4.268914 -3.479968 -0.350127
H 4.673512 -2.297075 0.931881
H 4.374907 -0.351376 -2.809849
H 5.525860 2.642474 0.138111
H 3.513021 1.977496 1.469313
C 4.831792 -4.374345 1.544081
H 4.349618 -5.355227 1.351518
H 5.905671 -4.451794 1.271410
H 4.767365 -4.170109 2.634256
H 5.991092 1.444673 -2.060416
78
Burette MDSmooth frame 4
Fe -2.907622 -1.258646 -0.963665
Mn 1.313284 -0.231792 1.251027
P -0.297978 0.920382 0.135723
O 1.474488 1.852236 3.338978
O -0.524915 -1.782828 2.950402
N 1.350574 -1.625366 -0.312793
N 2.866280 0.519307 0.109230
C -1.215253 -0.104191 -1.076025
C -0.904898 -1.497830 -1.384969
C -1.714834 -1.868928 -2.521703
H -1.736864 -2.857600 -2.997224
C -2.523016 -0.743603 -2.907895
H -3.259125 -0.727303 -3.722891
C -2.227497 0.343834 -2.016647
H -2.681657 1.342339 -2.049244
C -3.419259 -1.701559 0.983561
H -2.754615 -1.624227 1.853311
C -3.574694 -2.861358 0.146649
H -3.053345 -3.820300 0.268774
C -4.514547 -2.536302 -0.895862
H -4.831746 -3.202019 -1.709743
C -4.942810 -1.174424 -0.700057
H -5.644355 -0.621262 -1.338880
C -4.263850 -0.656601 0.459293
H -4.357807 0.359051 0.865009
C 0.388990 2.311385 -0.893727
C 0.912438 3.439038 -0.216292
H 0.853429 3.497279 0.882758
C 1.499077 4.494847 -0.932827
H 1.893446 5.368953 -0.390536
C 1.584050 4.436194 -2.337107
H 2.044485 5.264213 -2.899002
C 1.077978 3.315311 -3.017018
H 1.138517 3.260459 -4.115693
C 0.483651 2.258175 -2.301092
H 0.078937 1.394329 -2.850426
C -1.627664 1.821240 1.082415
C -1.953294 1.451861 2.405290
H -1.401060 0.645963 2.907701
C -2.989440 2.105909 3.097128
H -3.227516 1.804625 4.129571
C -3.713434 3.139527 2.477927
H -4.523053 3.652241 3.021112
C -3.390970 3.521608 1.162631
H -3.945778 4.336261 0.670502
C -2.353406 2.871876 0.472311
H -2.100611 3.198308 -0.548399
C 0.125893 -2.361621 -0.657744
H -0.331965 -2.662592 0.315297
C 2.044444 -1.120829 -1.475722
H 2.535382 -1.914375 -2.095067
H 1.378840 -0.579887 -2.220070
C 3.089928 -0.114703 -1.074601
C 3.732803 1.486384 0.507430
C 4.857316 1.851543 -0.239511
C 5.109064 1.189365 -1.453635
C 4.215492 0.194355 -1.870877
C 0.401675 -3.683515 -1.422015
H -0.515154 -4.301999 -1.510759
H 0.777012 -3.500914 -2.450112
H 1.160692 -4.276340 -0.872615
C 1.420509 1.016222 2.506662
C 0.166211 -1.144071 2.228865
H 2.672303 -0.726022 2.227867
H 2.414110 -1.358163 1.835471
H 2.493206 -2.868479 0.639764
O 2.771188 -3.210880 1.080436
C 4.152760 -3.270822 0.725320
H 4.263732 -3.481483 -0.355537
H 4.663641 -2.296791 0.929812
H 4.372613 -0.351388 -2.813340
H 5.525365 2.640279 0.136134
H 3.512741 1.975067 1.467542
C 4.826930 -4.377210 1.537938
H 4.347124 -5.357826 1.342190
H 5.900705 -4.449367 1.264895
H 4.762901 -4.173636 2.628260
H 5.989562 1.443713 -2.063285
78
Burette MDSmooth frame 5
Fe -2.909203 -1.257858 -0.965100
Mn 1.312488 -0.233096 1.249066
P -0.298776 0.920011 0.134729
O 1.474696 1.849859 3.338012
O -0.525658 -1.784542 2.948123
N 1.346908 -1.619422 -0.317609
N 2.865381 0.518204 0.107260
C -1.216590 -0.103746 -1.077303
C -0.906639 -1.497305 -1.387014
C -1.716942 -1.867649 -2.523734
H -1.739321 -2.856080 -2.999739
C -2.524954 -0.741941 -2.909169
H -3.261260 -0.725063 -3.723977
C -2.228960 0.344985 -2.017455
H -2.682893 1.343613 -2.049445
C -3.420466 -1.701615 0.982033
H -2.755590 -1.624871 1.851658
C -3.576380 -2.860964 0.144584
H -3.055227 -3.820089 0.266105
C -4.516413 -2.535169 -0.897536
H -4.833969 -3.200408 -1.711669
C -4.944307 -1.173286 -0.700951
H -5.645879 -0.619642 -1.339327
C -4.264941 -0.656198 0.458490
H -4.358559 0.359275 0.864733
C 0.388266 2.311363 -0.894201
C 0.912146 3.438556 -0.216334
H 0.853421 3.496267 0.882759
C 1.498858 4.494583 -0.932490
H 1.893566 5.368327 -0.389862
C 1.583472 4.436607 -2.336820
H 2.043964 5.264796 -2.898418
C 1.076969 3.316179 -3.017163
H 1.137225 3.261858 -4.115881
C 0.482569 2.258828 -2.301615
H 0.077517 1.395349 -2.851279
C -1.628018 1.820713 1.082194
C -1.953410 1.450755 2.404966
H -1.401243 0.644478 2.906842
C -2.989233 2.104704 3.097383
H -3.227126 1.802964 4.129735
C -3.713135 3.138800 2.478871
H -4.522500 3.651436 3.022510
C -3.390904 3.521457 1.163686
H -3.945641 4.336485 0.672097
C -2.353662 2.871823 0.472789
H -2.101041 3.198701 -0.547822
C 0.128449 -2.357381 -0.660469
H -0.333562 -2.660885 0.312536
C 2.038450 -1.120954 -1.476143
H 2.533369 -1.912149 -2.098161
H 1.385748 -0.573000 -2.235179
C 3.086429 -0.115272 -1.076940
C 3.732230 1.484879 0.505727
C 4.856645 1.850143 -0.241309
C 5.107940 1.188507 -1.455823
C 4.214030 0.193915 -1.873339
C 0.399410 -3.683280 -1.425464
H -0.517587 -4.301503 -1.516451
H 0.774538 -3.500258 -2.453563
H 1.158421 -4.278715 -0.878706
C 1.420316 1.014270 2.505295
C 0.165440 -1.145588 2.224574
H 2.684615 -0.684955 2.253434
H 2.385150 -1.277945 1.858669
H 2.601797 -2.982185 0.735450
O 2.767485 -3.223242 1.074473
C 4.155439 -3.272534 0.716834
H 4.259617 -3.482686 -0.359833
H 4.655802 -2.296565 0.928169
H 4.370792 -0.351398 -2.816112
H 5.524973 2.638536 0.134563
H 3.512518 1.973138 1.466136
C 4.823069 -4.379485 1.533061
H 4.345143 -5.359890 1.334783
H 5.896762 -4.447439 1.259720
H 4.759357 -4.176436 2.623499
H 5.988348 1.442951 -2.065564
78
Burette MDSmooth frame 6
Fe -2.909848 -1.257537 -0.965685
Mn 1.312164 -0.233627 1.248267
P -0.299101 0.919860 0.134324
O 1.474781 1.848891 3.337618
O -0.525961 -1.785241 2.947195
N 1.345414 -1.617000 -0.319571
N 2.865015 0.517754 0.106458
C -1.217135 -0.103564 -1.077823
C -0.907348 -1.497091 -1.387847
C -1.717801 -1.867127 -2.524561
H -1.740322 -2.855460 -3.000764
C -2.525744 -0.741264 -2.909689
H -3.262129 -0.724151 -3.724419
C -2.229556 0.345453 -2.017784
H -2.683397 1.344132 -2.049527
C -3.420958 -1.701638 0.981410
H -2.755988 -1.625134 1.850985
C -3.577067 -2.860803 0.143742
H -3.055994 -3.820003 0.265018
C -4.517173 -2.534708 -0.898218
H -4.834874 -3.199751 -1.712454
C -4.944917 -1.172823 -0.701315
H -5.646500 -0.618983 -1.339510
C -4.265385 -0.656034 0.458163
H -4.358866 0.359366 0.864620
C 0.387972 2.311354 -0.894394
C 0.912027 3.438360 -0.216352
H 0.853417 3.495854 0.882759
C 1.498769 4.494475 -0.932353
H 1.893615 5.368072 -0.389588
C 1.583237 4.436775 -2.336703
H 2.043752 5.265033 -2.898180
C 1.076558 3.316533 -3.017223
H 1.136699 3.262428 -4.115958
C 0.482128 2.259094 -2.301828
H 0.076938 1.395765 -2.851626
C -1.628162 1.820499 1.082104
C -1.953457 1.450304 2.404834
H -1.401317 0.643872 2.906492
C -2.989148 2.104213 3.097487
H -3.226967 1.802288 4.129802
C -3.713013 3.138504 2.479256
H -4.522275 3.651108 3.023079
C -3.390877 3.521395 1.164116
H -3.945586 4.336576 0.672747
C -2.353767 2.871801 0.472983
H -2.101216 3.198862 -0.547587
C 0.129490 -2.355653 -0.661579
H -0.334213 -2.660190 0.311411
C 2.036008 -1.121005 -1.476314
H 2.532549 -1.911242 -2.099422
H 1.388562 -0.570194 -2.241335
C 3.085003 -0.115504 -1.077893
C 3.731996 1.484266 0.505033
C 4.856372 1.849573 -0.242041
C 5.107481 1.188158 -1.456715
C 4.213435 0.193735 -1.874342
C 0.398488 -3.683184 -1.426870
H -0.518578 -4.301301 -1.518769
H 0.773530 -3.499990 -2.454969
H 1.157496 -4.279683 -0.881187
C 1.420237 1.013475 2.504737
C 0.165125 -1.146207 2.222825
H 2.689631 -0.668223 2.263850
H 2.373351 -1.245264 1.868120
H 2.646037 -3.028509 0.774433
O 2.765976 -3.228278 1.072044
C 4.156530 -3.273231 0.713377
H 4.257941 -3.483176 -0.361583
H 4.652608 -2.296473 0.927499
H 4.370049 -0.351402 -2.817241
H 5.524813 2.637826 0.133923
H 3.512428 1.972352 1.465563
C 4.821497 -4.380411 1.531073
H 4.344337 -5.360731 1.331766
H 5.895155 -4.446654 1.257612
H 4.757912 -4.177577 2.621560
H 5.987853 1.442640 -2.066492
78
Burette MDSmooth frame 7
Fe -2.909320 -1.257800 -0.965207
Mn 1.312430 -0.233194 1.248921
P -0.298835 0.919983 0.134655
O 1.474712 1.849682 3.337941
O -0.525713 -1.784670 2.947954
N 1.346636 -1.618984 -0.317969
N 2.865315 0.518121 0.107115
C -1.216689 -0.103713 -1.077397
C -0.906768 -1.497266 -1.387166
C -1.717098 -1.867554 -2.523885
H -1.739503 -2.855967 -2.999927
C -2.525098 -0.741818 -2.909264
H -3.261418 -0.724898 -3.724058
C -2.229068 0.345070 -2.017515
H -2.682985 1.343707 -2.049460
C -3.420556 -1.701620 0.981920
H -2.755662 -1.624920 1.851536
C -3.576505 -2.860935 0.144430
H -3.055366 -3.820074 0.265907
C -4.516551 -2.535086 -0.897661
H -4.834133 -3.200289 -1.711813
C -4.944418 -1.173202 -0.701017
H -5.645992 -0.619523 -1.339361
C -4.265021 -0.656169 0.458431
H -4.358615 0.359291 0.864712
C 0.388213 2.311361 -0.894236
C 0.912125 3.438520 -0.216337
H 0.853421 3.496191 0.882760
C 1.498842 4.494563 -0.932465
H 1.893576 5.368281 -0.389812
C 1.583430 4.436637 -2.336798
H 2.043926 5.264839 -2.898374
C 1.076894 3.316244 -3.017174
H 1.137129 3.261961 -4.115895
C 0.482489 2.258876 -2.301654
H 0.077412 1.395425 -2.851342
C -1.628044 1.820674 1.082178
C -1.953418 1.450672 2.404943
H -1.401256 0.644367 2.906779
C -2.989217 2.104614 3.097403
H -3.227096 1.802841 4.129748
C -3.713112 3.138746 2.478942
H -4.522459 3.651376 3.022614
C -3.390898 3.521446 1.163765
H -3.945631 4.336502 0.672216
C -2.353681 2.871819 0.472825
H -2.101073 3.198730 -0.547779
C 0.128638 -2.357067 -0.660672
H -0.333681 -2.660760 0.312330
C 2.038006 -1.120964 -1.476175
H 2.533220 -1.911985 -2.098392
H 1.386261 -0.572493 -2.236299
C 3.086170 -0.115316 -1.077114
C 3.732188 1.484766 0.505601
C 4.856596 1.850038 -0.241442
C 5.107857 1.188443 -1.455985
C 4.213923 0.193881 -1.873522
C 0.399243 -3.683263 -1.425721
H -0.517767 -4.301468 -1.516873
H 0.774355 -3.500210 -2.453820
H 1.158254 -4.278893 -0.879157
C 1.420302 1.014125 2.505194
C 0.165383 -1.145703 2.224256
H 2.685516 -0.681902 2.255315
H 2.382987 -1.272000 1.860354
H 2.609842 -2.990557 0.742594
O 2.767213 -3.224160 1.074034
C 4.155638 -3.272663 0.716206
H 4.259313 -3.482777 -0.360152
H 4.655221 -2.296550 0.928045
H 4.370657 -0.351400 -2.816318
H 5.524944 2.638406 0.134447
H 3.512502 1.972994 1.466032
C 4.822784 -4.379655 1.532698
H 4.344998 -5.360046 1.334234
H 5.896470 -4.447299 1.259335
H 4.759095 -4.176645 2.623146
H 5.988258 1.442893 -2.065733
78
Burette MDSmooth frame 8
Fe -2.907973 -1.258472 -0.963985
Mn 1.313108 -0.232085 1.250591
P -0.298154 0.920298 0.135502
O 1.474536 1.851704 3.338766
O -0.525078 -1.783213 2.949895
N 1.349759 -1.624051 -0.313872
N 2.866082 0.519059 0.108793
C -1.215550 -0.104094 -1.076309
C -0.905284 -1.497715 -1.385425
C -1.715303 -1.868645 -2.522156
H -1.737410 -2.857263 -2.997785
C -2.523447 -0.743234 -2.908180
H -3.259600 -0.726805 -3.723134
C -2.227822 0.344089 -2.016827
H -2.681932 1.342622 -2.049289
C -3.419526 -1.701573 0.983221
H -2.754830 -1.624372 1.852944
C -3.575068 -2.861273 0.146189
H -3.053762 -3.820255 0.268179
C -4.514961 -2.536052 -0.896236
H -4.832240 -3.201662 -1.710173
C -4.943142 -1.174172 -0.700256
H -5.644694 -0.620902 -1.338980
C -4.264092 -0.656513 0.459115
H -4.357974 0.359100 0.864948
C 0.388830 2.311379 -0.893832
C 0.912374 3.438929 -0.216300
H 0.853429 3.497052 0.882760
C 1.499030 4.494787 -0.932751
H 1.893474 5.368813 -0.390384
C 1.583923 4.436286 -2.337042
H 2.044370 5.264343 -2.898871
C 1.077754 3.315504 -3.017050
H 1.138230 3.260770 -4.115735
C 0.483411 2.258319 -2.301208
H 0.078622 1.394555 -2.850616
C -1.627742 1.821122 1.082367
C -1.953318 1.451613 2.405220
H -1.401099 0.645630 2.907512
C -2.989393 2.105639 3.097187
H -3.227427 1.804254 4.129610
C -3.713366 3.139364 2.478139
H -4.522929 3.652061 3.021425
C -3.390954 3.521574 1.162868
H -3.945747 4.336311 0.670859
C -2.353462 2.871863 0.472419
H -2.100705 3.198395 -0.548270
C 0.126460 -2.360679 -0.658353
H -0.332320 -2.662216 0.314680
C 2.043112 -1.120859 -1.475819
H 2.534934 -1.913883 -2.095759
H 1.380379 -0.578368 -2.223431
C 3.089151 -0.114834 -1.075123
C 3.732678 1.486047 0.507052
C 4.857168 1.851229 -0.239910
C 5.108816 1.189171 -1.454121
C 4.215168 0.194254 -1.871425
C 0.401172 -3.683465 -1.422784
H -0.515693 -4.301894 -1.512027
H 0.776463 -3.500771 -2.450882
H 1.160190 -4.276874 -0.873969
C 1.420468 1.015785 2.506360
C 0.166042 -1.144414 2.227912
H 2.675005 -0.716865 2.233511
H 2.407623 -1.340328 1.840528
H 2.517343 -2.893596 0.661197
O 2.770373 -3.213635 1.079119
C 4.153359 -3.271209 0.723435
H 4.262819 -3.481755 -0.356494
H 4.661898 -2.296746 0.929440
H 4.372209 -0.351393 -2.813957
H 5.525280 2.639889 0.135786
H 3.512693 1.974635 1.467231
C 4.826074 -4.377722 1.536851
H 4.346686 -5.358292 1.340542
H 5.899829 -4.448945 1.263737
H 4.762116 -4.174265 2.627200
H 5.989294 1.443541 -2.063792
78
Burette MDSmooth frame 9
Fe -2.906156 -1.259378 -0.962338
Mn 1.314022 -0.230589 1.252843
P -0.297237 0.920723 0.136644
O 1.474299 1.854431 3.339876
O -0.524224 -1.781247 2.952511
N 1.353967 -1.630880 -0.308346
N 2.867115 0.520325 0.111054
C -1.214014 -0.104606 -1.074843
C -0.903285 -1.498319 -1.383078
C -1.712882 -1.870115 -2.519826
H -1.734588 -2.859009 -2.994898
C -2.521222 -0.745142 -2.906717
H -3.257150 -0.729376 -3.721888
C -2.226142 0.342768 -2.015901
H -2.680513 1.341159 -2.049058
C -3.418139 -1.701509 0.984976
H -2.753709 -1.623634 1.854841
C -3.573132 -2.861727 0.148560
H -3.051601 -3.820499 0.271242
C -4.512819 -2.537353 -0.894314
H -4.829688 -3.203512 -1.707962
C -4.941423 -1.175478 -0.699231
H -5.642944 -0.622761 -1.338467
C -4.262839 -0.656975 0.460037
H -4.357110 0.358842 0.865265
C 0.389662 2.311404 -0.893288
C 0.912710 3.439481 -0.216250
H 0.853439 3.498213 0.882760
C 1.499282 4.495090 -0.933137
H 1.893338 5.369530 -0.391156
C 1.584586 4.435812 -2.337370
H 2.044968 5.263674 -2.899540
C 1.078912 3.314507 -3.016883
H 1.139713 3.259164 -4.115519
C 0.484654 2.257569 -2.300607
H 0.080252 1.393383 -2.849637
C -1.627335 1.821726 1.082621
C -1.953184 1.452882 2.405592
H -1.400889 0.647335 2.908498
C -2.989630 2.107022 3.096895
H -3.227875 1.806159 4.129422
C -3.713708 3.140198 2.477055
H -4.523563 3.652986 3.019821
C -3.391029 3.521746 1.161658
H -3.945903 4.336053 0.669029
C -2.353167 2.871924 0.471871
H -2.100211 3.197943 -0.548932
C 0.123525 -2.365548 -0.655227
H -0.330487 -2.664177 0.317848
C 2.049993 -1.120717 -1.475338
H 2.537245 -1.916441 -2.092208
H 1.372450 -0.586281 -2.206086
C 3.093169 -0.114182 -1.072439
C 3.733337 1.487773 0.509007
C 4.857939 1.852834 -0.237845
C 5.110108 1.190154 -1.451609
C 4.216847 0.194758 -1.868598
C 0.403773 -3.683737 -1.418825
H -0.512899 -4.302466 -1.505494
H 0.779304 -3.501526 -2.446920
H 1.162799 -4.274150 -0.866975
C 1.420691 1.018024 2.507931
C 0.166929 -1.142675 2.232839
H 2.660853 -0.764001 2.204138
H 2.440849 -1.432425 1.813844
H 2.392667 -2.762969 0.551420
O 2.774628 -3.199446 1.085970
C 4.150285 -3.269247 0.733179
H 4.267544 -3.480377 -0.351564
H 4.670898 -2.297008 0.931324
H 4.374301 -0.351383 -2.810775
H 5.525732 2.641889 0.137589
H 3.512950 1.976848 1.468846
C 4.830507 -4.375114 1.542450
H 4.348962 -5.355927 1.349045
H 5.904356 -4.451162 1.269674
H 4.766187 -4.171053 2.632665
H 5.990689 1.444415 -2.061176
78
Burette MDSmooth frame 10
Fe -2.904223 -1.260341 -0.960584
Mn 1.314995 -0.228995 1.255239
P -0.296261 0.921177 0.137860
O 1.474044 1.857337 3.341057
O -0.523315 -1.779152 2.955296
N 1.358449 -1.638144 -0.302459
N 2.868213 0.521675 0.113462
C -1.212380 -0.105150 -1.073281
C -0.901157 -1.498960 -1.380578
C -1.710306 -1.871678 -2.517343
H -1.731585 -2.860867 -2.991823
C -2.518854 -0.747173 -2.905159
H -3.254541 -0.732113 -3.720560
C -2.224354 0.341362 -2.014914
H -2.679002 1.339602 -2.048813
C -3.416663 -1.701440 0.986844
H -2.752517 -1.622846 1.856861
C -3.571071 -2.862209 0.151085
H -3.049301 -3.820756 0.274505
C -4.510538 -2.538738 -0.892268
H -4.826972 -3.205481 -1.705607
C -4.939593 -1.176867 -0.698139
H -5.641081 -0.624741 -1.337920
C -4.261507 -0.657467 0.461018
H -4.356191 0.358569 0.865603
C 0.390546 2.311431 -0.892709
C 0.913066 3.440069 -0.216199
H 0.853448 3.499451 0.882758
C 1.499549 4.495412 -0.933549
H 1.893191 5.370295 -0.391980
C 1.585292 4.435308 -2.337720
H 2.045605 5.262961 -2.900254
C 1.080145 3.313445 -3.016705
H 1.141291 3.257454 -4.115290
C 0.485976 2.256770 -2.299967
H 0.081988 1.392135 -2.848595
C -1.626902 1.822370 1.082891
C -1.953043 1.454234 2.405988
H -1.400667 0.649151 2.909548
C -2.989885 2.108495 3.096583
H -3.228352 1.808189 4.129221
C -3.714074 3.141087 2.475900
H -4.524239 3.653970 3.018112
C -3.391110 3.521931 1.160368
H -3.946071 4.335779 0.667079
C -2.352853 2.871989 0.471286
H -2.099685 3.197462 -0.549638
C 0.120402 -2.370730 -0.651896
H -0.328535 -2.666263 0.321224
C 2.057319 -1.120564 -1.474824
H 2.539705 -1.919161 -2.088425
H 1.364007 -0.594697 -2.187619
C 3.097445 -0.113486 -1.069580
C 3.734037 1.489613 0.511088
C 4.858759 1.854546 -0.235648
C 5.111483 1.191202 -1.448934
C 4.218633 0.195297 -1.865588
C 0.406541 -3.684023 -1.414608
H -0.509925 -4.303072 -1.498537
H 0.782328 -3.502328 -2.442702
H 1.165574 -4.271247 -0.859531
C 1.420927 1.020410 2.509602
C 0.167870 -1.140819 2.238084
H 2.645810 -0.814199 2.172896
H 2.476254 -1.530471 1.785508
H 2.259944 -2.624021 0.434443
O 2.779153 -3.184336 1.093256
C 4.147011 -3.267154 0.743551
H 4.272573 -3.478906 -0.346312
H 4.680479 -2.297283 0.933333
H 4.376527 -0.351370 -2.807387
H 5.526212 2.644020 0.139509
H 3.513222 1.979207 1.470564
C 4.835226 -4.372332 1.548413
H 4.351382 -5.353402 1.358099
H 5.909175 -4.453517 1.275999
H 4.770519 -4.167630 2.638484
H 5.992173 1.445347 -2.058391
78
Burette MDSmooth frame 11
Fe -2.902525 -1.261186 -0.959042
Mn 1.315847 -0.227590 1.257345
P -0.295405 0.921578 0.138927
O 1.473818 1.859894 3.342092
O -0.522519 -1.777306 2.957743
N 1.362388 -1.644520 -0.297274
N 2.869177 0.522864 0.115577
C -1.210944 -0.105627 -1.071908
C -0.899287 -1.499522 -1.378380
C -1.708042 -1.873051 -2.515160
H -1.728945 -2.862498 -2.989118
C -2.516772 -0.748957 -2.903789
H -3.252248 -0.734518 -3.719392
C -2.222783 0.340127 -2.014046
H -2.677675 1.338234 -2.048597
C -3.415367 -1.701376 0.988486
H -2.751470 -1.622150 1.858637
C -3.569260 -2.862630 0.153305
H -3.047280 -3.820979 0.277374
C -4.508534 -2.539953 -0.890468
H -4.824584 -3.207210 -1.703535
C -4.937985 -1.178088 -0.697178
H -5.639444 -0.626480 -1.337439
C -4.260336 -0.657898 0.461881
H -4.355385 0.358330 0.865899
C 0.391322 2.311457 -0.892202
C 0.913378 3.440588 -0.216155
H 0.853455 3.500540 0.882754
C 1.499783 4.495697 -0.933913
H 1.893060 5.370968 -0.392707
C 1.585912 4.434866 -2.338030
H 2.046163 5.262336 -2.900884
C 1.081228 3.312513 -3.016550
H 1.142678 3.255952 -4.115089
C 0.487137 2.256070 -2.299405
H 0.083513 1.391040 -2.847679
C -1.626524 1.822938 1.083127
C -1.952920 1.455425 2.406334
H -1.400473 0.650750 2.910469
C -2.990110 2.109791 3.096307
H -3.228774 1.809976 4.129042
C -3.714397 3.141869 2.474882
H -4.524835 3.654836 3.016607
C -3.391182 3.522093 1.159232
H -3.946219 4.335538 0.665363
C -2.352579 2.872047 0.470771
H -2.099224 3.197040 -0.550260
C 0.117659 -2.375283 -0.648965
H -0.326819 -2.668092 0.324194
C 2.063757 -1.120427 -1.474368
H 2.541867 -1.921549 -2.085096
H 1.356582 -0.602080 -2.171386
C 3.101202 -0.112870 -1.067066
C 3.734651 1.491234 0.512916
C 4.859477 1.856053 -0.233718
C 5.112689 1.192127 -1.446584
C 4.220202 0.195773 -1.862942
C 0.408973 -3.684272 -1.410900
H -0.507314 -4.303599 -1.492421
H 0.784985 -3.503029 -2.438991
H 1.168009 -4.268688 -0.852988
C 1.421132 1.022510 2.511070
C 0.168695 -1.139182 2.242693
H 2.632630 -0.858350 2.145486
H 2.507429 -1.616642 1.760723
H 2.143302 -2.502094 0.331444
O 2.783120 -3.171048 1.099649
C 4.144129 -3.265306 0.752665
H 4.276991 -3.477606 -0.341694
H 4.688899 -2.297518 0.935107
H 4.378483 -0.351356 -2.804408
H 5.526631 2.645896 0.141194
H 3.513458 1.981283 1.472073
C 4.839370 -4.369880 1.553656
H 4.353505 -5.351175 1.366058
H 5.913411 -4.455578 1.281567
H 4.774324 -4.164613 2.643601
H 5.993476 1.446170 -2.055944
78
Burette MDSmooth frame 12
Fe -2.900851 -1.262017 -0.957519
Mn 1.316685 -0.226198 1.259421
P -0.294563 0.921977 0.139979
O 1.473590 1.862423 3.343109
O -0.521737 -1.775478 2.960156
N 1.366275 -1.650795 -0.292142
N 2.870124 0.524043 0.117663
C -1.209529 -0.106094 -1.070553
C -0.897444 -1.500072 -1.376209
C -1.705809 -1.874402 -2.513003
H -1.726341 -2.864104 -2.986445
C -2.514719 -0.750715 -2.902435
H -3.249986 -0.736890 -3.718237
C -2.221234 0.338910 -2.013189
H -2.676367 1.336885 -2.048385
C -3.414090 -1.701309 0.990107
H -2.750440 -1.621459 1.860389
C -3.567475 -2.863041 0.155498
H -3.045288 -3.821194 0.280207
C -4.506558 -2.541149 -0.888690
H -4.822229 -3.208913 -1.701487
C -4.936399 -1.179290 -0.696229
H -5.637829 -0.628195 -1.336963
C -4.259183 -0.658320 0.462732
H -4.354591 0.358096 0.866190
C 0.392085 2.311485 -0.891703
C 0.913683 3.441102 -0.216115
H 0.853458 3.501618 0.882746
C 1.500011 4.495980 -0.934276
H 1.892928 5.371634 -0.393429
C 1.586521 4.434430 -2.338338
H 2.046712 5.261719 -2.901508
C 1.082295 3.311594 -3.016398
H 1.144045 3.254470 -4.114891
C 0.488281 2.255381 -2.298852
H 0.085016 1.389961 -2.846775
C -1.626153 1.823501 1.083357
C -1.952802 1.456604 2.406672
H -1.400286 0.652333 2.911375
C -2.990336 2.111073 3.096030
H -3.229194 1.811743 4.128861
C -3.714719 3.142642 2.473873
H -4.525426 3.655692 3.015116
C -3.391256 3.522254 1.158107
H -3.946367 4.335300 0.663665
C -2.352311 2.872106 0.470259
H -2.098771 3.196624 -0.550877
C 0.114957 -2.379772 -0.646066
H -0.325127 -2.669890 0.327131
C 2.070107 -1.120286 -1.473911
H 2.544000 -1.923898 -2.081804
H 1.349251 -0.609338 -2.155370
C 3.104905 -0.112254 -1.064583
C 3.735253 1.492839 0.514717
C 4.860182 1.857546 -0.231816
C 5.113876 1.193045 -1.444266
C 4.221747 0.196248 -1.860331
C 0.411370 -3.684511 -1.407238
H -0.504742 -4.304107 -1.486383
H 0.787605 -3.503716 -2.435326
H 1.170405 -4.266153 -0.846535
C 1.421330 1.024588 2.512515
C 0.169502 -1.137555 2.247239
H 2.619704 -0.901958 2.118534
H 2.538283 -1.701644 1.736492
H 2.028257 -2.382174 0.229503
O 2.787015 -3.157927 1.105935
C 4.141279 -3.263468 0.761652
H 4.281345 -3.476313 -0.337132
H 4.697204 -2.297738 0.936870
H 4.380410 -0.351337 -2.801467
H 5.527040 2.647753 0.142854
H 3.513687 1.983337 1.473558
C 4.843453 -4.367448 1.558833
H 4.355594 -5.348961 1.373913
H 5.917589 -4.457596 1.287074
H 4.778072 -4.161622 2.648653
H 5.994758 1.446987 -2.053530
78
Burette MDSmooth frame 13
Fe -2.898966 -1.262950 -0.955803
Mn 1.317625 -0.224626 1.261759
P -0.293617 0.922430 0.141162
O 1.473330 1.865275 3.344252
O -0.520859 -1.773414 2.962874
N 1.370653 -1.657851 -0.286352
N 2.871189 0.525375 0.120011
C -1.207938 -0.106618 -1.069027
C -0.895370 -1.500689 -1.373764
C -1.703296 -1.875921 -2.510572
H -1.723410 -2.865909 -2.983432
C -2.512407 -0.752695 -2.900908
H -3.247438 -0.739561 -3.716934
C -2.219491 0.337541 -2.012224
H -2.674894 1.335366 -2.048145
C -3.412654 -1.701231 0.991932
H -2.749282 -1.620677 1.862361
C -3.565466 -2.863501 0.157968
H -3.043046 -3.821432 0.283400
C -4.504333 -2.542494 -0.886685
H -4.819577 -3.210829 -1.699178
C -4.934615 -1.180642 -0.695159
H -5.636011 -0.630126 -1.336426
C -4.257885 -0.658794 0.463691
H -4.353698 0.357835 0.866517
C 0.392943 2.311518 -0.891143
C 0.914024 3.441683 -0.216073
H 0.853460 3.502834 0.882735
C 1.500266 4.496299 -0.934688
H 1.892777 5.372384 -0.394245
C 1.587206 4.433941 -2.338687
H 2.047329 5.261024 -2.902213
C 1.083495 3.310560 -3.016228
H 1.145584 3.252801 -4.114668
C 0.489568 2.254605 -2.298229
H 0.086708 1.388747 -2.845756
C -1.625738 1.824138 1.083614
C -1.952672 1.457934 2.407051
H -1.400077 0.654118 2.912393
C -2.990592 2.112519 3.095715
H -3.229669 1.813734 4.128653
C -3.715083 3.143515 2.472733
H -4.526094 3.656656 3.013434
C -3.391340 3.522436 1.156838
H -3.946535 4.335032 0.661751
C -2.352011 2.872173 0.469681
H -2.098262 3.196157 -0.551573
C 0.111916 -2.384826 -0.642797
H -0.323221 -2.671909 0.330443
C 2.077256 -1.120124 -1.473392
H 2.546403 -1.926539 -2.078093
H 1.340992 -0.617494 -2.137334
C 3.109072 -0.111556 -1.061785
C 3.735928 1.494650 0.516744
C 4.860973 1.859231 -0.229675
C 5.115211 1.194082 -1.441656
C 4.223484 0.196787 -1.857391
C 0.414069 -3.684776 -1.403111
H -0.501847 -4.304673 -1.479582
H 0.790555 -3.504485 -2.431196
H 1.173098 -4.263290 -0.839269
C 1.421551 1.026933 2.514140
C 0.170408 -1.135716 2.252356
H 2.605195 -0.951097 2.088241
H 2.573091 -1.797357 1.709344
H 1.898724 -2.247364 0.114500
O 2.791390 -3.143144 1.113002
C 4.138064 -3.261390 0.771770
H 4.286246 -3.474849 -0.331992
H 4.706555 -2.297977 0.938865
H 4.382578 -0.351311 -2.798155
H 5.527499 2.649848 0.144721
H 3.513942 1.985655 1.475228
C 4.848048 -4.364700 1.564667
H 4.357941 -5.346458 1.382759
H 5.922293 -4.459858 1.293285
H 4.782289 -4.158246 2.654344
H 5.996200 1.447911 -2.050812
78
Burette MDSmooth frame 14
Fe -2.897187 -1.263830 -0.954182
Mn 1.318513 -0.223140 1.263966
P -0.292724 0.922858 0.142279
O 1.473084 1.867969 3.345329
O -0.520031 -1.771464 2.965439
N 1.374787 -1.664509 -0.280881
N 2.872193 0.526634 0.122228
C -1.206435 -0.107112 -1.067586
C -0.893412 -1.501270 -1.371455
C -1.700922 -1.877355 -2.508276
H -1.720642 -2.867613 -2.980586
C -2.510225 -0.754563 -2.899466
H -3.245033 -0.742082 -3.715702
C -2.217845 0.336249 -2.011312
H -2.673503 1.333933 -2.047919
C -3.411299 -1.701156 0.993656
H -2.748190 -1.619937 1.864223
C -3.563570 -2.863934 0.160302
H -3.040930 -3.821656 0.286415
C -4.502232 -2.543763 -0.884792
H -4.817073 -3.212637 -1.696998
C -4.932930 -1.181919 -0.694149
H -5.634295 -0.631949 -1.335919
C -4.256661 -0.659240 0.464596
H -4.352856 0.357589 0.866825
C 0.393753 2.311550 -0.890614
C 0.914345 3.442232 -0.216034
H 0.853460 3.503983 0.882722
C 1.500506 4.496601 -0.935077
H 1.892634 5.373094 -0.395018
C 1.587852 4.433479 -2.339018
H 2.047911 5.260368 -2.902879
C 1.084628 3.309584 -3.016068
H 1.147037 3.251226 -4.114458
C 0.490783 2.253874 -2.297641
H 0.088305 1.387602 -2.844795
C -1.625346 1.824739 1.083856
C -1.952550 1.459190 2.407407
H -1.399881 0.655806 2.913353
C -2.990835 2.113886 3.095417
H -3.230119 1.815616 4.128456
C -3.715427 3.144338 2.471656
H -4.526725 3.657567 3.011844
C -3.391421 3.522609 1.155638
H -3.946695 4.334778 0.659941
C -2.351727 2.872237 0.469134
H -2.097782 3.195715 -0.552231
C 0.109047 -2.389596 -0.639709
H -0.321422 -2.673814 0.333571
C 2.084007 -1.119970 -1.472900
H 2.548671 -1.929030 -2.074586
H 1.333193 -0.625187 -2.120303
C 3.113005 -0.110894 -1.059143
C 3.736564 1.496362 0.518657
C 4.861719 1.860824 -0.227654
C 5.116470 1.195063 -1.439191
C 4.225124 0.197298 -1.854614
C 0.416616 -3.685025 -1.399214
H -0.499116 -4.305204 -1.473159
H 0.793339 -3.505210 -2.427295
H 1.175639 -4.260584 -0.832409
C 1.421757 1.029148 2.515673
C 0.171261 -1.133976 2.257188
H 2.591519 -0.997509 2.059665
H 2.605987 -1.887725 1.683777
H 1.776428 -2.120189 0.005816
O 2.795516 -3.129183 1.119667
C 4.135028 -3.259423 0.781321
H 4.290873 -3.473464 -0.327138
H 4.715383 -2.298200 0.940752
H 4.384625 -0.351286 -2.795027
H 5.527931 2.651828 0.146483
H 3.514182 1.987845 1.476804
C 4.852385 -4.362101 1.570176
H 4.360156 -5.344090 1.391113
H 5.926734 -4.461990 1.299153
H 4.786269 -4.155054 2.659719
H 5.997561 1.448785 -2.048245
78
Burette MDSmooth frame 15
Fe -2.895830 -1.264502 -0.952945
Mn 1.319189 -0.222006 1.265650
P -0.292042 0.923185 0.143132
O 1.472895 1.870027 3.346151
O -0.519400 -1.769975 2.967397
N 1.377942 -1.669589 -0.276703
N 2.872959 0.527596 0.123920
C -1.205289 -0.107488 -1.066486
C -0.891918 -1.501713 -1.369692
C -1.699111 -1.878449 -2.506523
H -1.718530 -2.868913 -2.978414
C -2.508559 -0.755988 -2.898365
H -3.243197 -0.744007 -3.714762
C -2.216589 0.335263 -2.010616
H -2.672442 1.332839 -2.047747
C -3.410264 -1.701098 0.994972
H -2.747356 -1.619372 1.865645
C -3.562123 -2.864264 0.162083
H -3.039315 -3.821825 0.288717
C -4.500629 -2.544731 -0.883347
H -4.815163 -3.214017 -1.695333
C -4.931644 -1.182893 -0.693378
H -5.632985 -0.633340 -1.335532
C -4.255726 -0.659581 0.465286
H -4.352213 0.357401 0.867060
C 0.394370 2.311574 -0.890211
C 0.914590 3.442651 -0.216004
H 0.853460 3.504860 0.882713
C 1.500689 4.496831 -0.935375
H 1.892525 5.373635 -0.395608
C 1.588345 4.433126 -2.339270
H 2.048355 5.259868 -2.903388
C 1.085492 3.308840 -3.015946
H 1.148146 3.250024 -4.114298
C 0.491710 2.253316 -2.297193
H 0.089524 1.386728 -2.844061
C -1.625047 1.825199 1.084041
C -1.952457 1.460150 2.407679
H -1.399732 0.657094 2.914086
C -2.991021 2.114929 3.095189
H -3.230463 1.817053 4.128305
C -3.715691 3.144968 2.470833
H -4.527207 3.658263 3.010630
C -3.391482 3.522740 1.154722
H -3.946817 4.334585 0.658560
C -2.351512 2.872286 0.468717
H -2.097416 3.195379 -0.552733
C 0.106857 -2.393237 -0.637351
H -0.320049 -2.675267 0.335960
C 2.089158 -1.119852 -1.472524
H 2.550402 -1.930931 -2.071909
H 1.327239 -0.631055 -2.107306
C 3.116007 -0.110388 -1.057126
C 3.737049 1.497669 0.520117
C 4.862288 1.862040 -0.226113
C 5.117430 1.195812 -1.437310
C 4.226376 0.197688 -1.852495
C 0.418560 -3.685213 -1.396239
H -0.497031 -4.305608 -1.468256
H 0.795464 -3.505762 -2.424318
H 1.177577 -4.258518 -0.827174
C 1.421915 1.030840 2.516843
C 0.171912 -1.132647 2.260875
H 2.581090 -1.032937 2.037866
H 2.631103 -1.956692 1.664290
H 1.683095 -2.023170 -0.077168
O 2.798663 -3.118526 1.124752
C 4.132709 -3.257920 0.788611
H 4.294403 -3.472406 -0.323432
H 4.722120 -2.298369 0.942194
H 4.386187 -0.351266 -2.792639
H 5.528260 2.653340 0.147827
H 3.514364 1.989517 1.478007
C 4.855694 -4.360117 1.574381
H 4.361845 -5.342280 1.397489
H 5.930124 -4.463615 1.303634
H 4.789305 -4.152617 2.663822
H 5.998599 1.449453 -2.046287
78
Burette MDSmooth frame 16
Fe -2.895209 -1.264809 -0.952380
Mn 1.319499 -0.221488 1.266419
P -0.291731 0.923334 0.143521
O 1.472809 1.870966 3.346527
O -0.519111 -1.769295 2.968292
N 1.379384 -1.671910 -0.274794
N 2.873309 0.528035 0.124693
C -1.204765 -0.107660 -1.065984
C -0.891235 -1.501915 -1.368886
C -1.698284 -1.878949 -2.505722
H -1.717564 -2.869507 -2.977422
C -2.507798 -0.756640 -2.897862
H -3.242358 -0.744886 -3.714333
C -2.216015 0.334813 -2.010298
H -2.671958 1.332339 -2.047668
C -3.409792 -1.701072 0.995573
H -2.746975 -1.619114 1.866294
C -3.561462 -2.864415 0.162896
H -3.038577 -3.821903 0.289769
C -4.499897 -2.545173 -0.882686
H -4.814290 -3.214648 -1.694572
C -4.931056 -1.183338 -0.693026
H -5.632387 -0.633975 -1.335355
C -4.255299 -0.659736 0.465602
H -4.351920 0.357315 0.867168
C 0.394652 2.311585 -0.890027
C 0.914702 3.442842 -0.215991
H 0.853460 3.505261 0.882708
C 1.500772 4.496937 -0.935511
H 1.892475 5.373883 -0.395877
C 1.588570 4.432965 -2.339385
H 2.048558 5.259639 -2.903621
C 1.085887 3.308499 -3.015890
H 1.148652 3.249474 -4.114225
C 0.492133 2.253061 -2.296988
H 0.090081 1.386328 -2.843725
C -1.624911 1.825409 1.084125
C -1.952415 1.460588 2.407803
H -1.399664 0.657683 2.914421
C -2.991106 2.115406 3.095085
H -3.230620 1.817710 4.128236
C -3.715811 3.145255 2.470458
H -4.527427 3.658580 3.010076
C -3.391511 3.522800 1.154303
H -3.946873 4.334496 0.657929
C -2.351413 2.872308 0.468526
H -2.097249 3.195225 -0.552963
C 0.105857 -2.394901 -0.636274
H -0.319422 -2.675931 0.337051
C 2.091512 -1.119798 -1.472352
H 2.551193 -1.931799 -2.070686
H 1.324519 -0.633738 -2.101367
C 3.117378 -0.110157 -1.056204
C 3.737271 1.498266 0.520784
C 4.862548 1.862595 -0.225408
C 5.117869 1.196154 -1.436451
C 4.226948 0.197866 -1.851527
C 0.419448 -3.685300 -1.394880
H -0.496079 -4.305793 -1.466016
H 0.796435 -3.506015 -2.422958
H 1.178463 -4.257574 -0.824782
C 1.421987 1.031613 2.517378
C 0.172209 -1.132040 2.262560
H 2.576323 -1.049121 2.027904
H 2.642575 -1.988203 1.655379
H 1.640452 -1.978831 -0.115071
O 2.800101 -3.113658 1.127076
C 4.131650 -3.257234 0.791941
H 4.296016 -3.471922 -0.321739
H 4.725199 -2.298446 0.942852
H 4.386900 -0.351257 -2.791548
H 5.528410 2.654031 0.148441
H 3.514448 1.990281 1.478556
C 4.857207 -4.359210 1.576302
H 4.362618 -5.341454 1.400402
H 5.931672 -4.464358 1.305680
H 4.790693 -4.151503 2.665696
H 5.999073 1.449757 -2.045392
78
Burette MDSmooth frame 17
Fe -2.895884 -1.264475 -0.952994
Mn 1.319163 -0.222051 1.265583
P -0.292069 0.923172 0.143098
O 1.472903 1.869944 3.346119
O -0.519425 -1.770034 2.967319
N 1.377816 -1.669387 -0.276870
N 2.872929 0.527557 0.123853
C -1.205334 -0.107473 -1.066530
C -0.891977 -1.501695 -1.369762
C -1.699183 -1.878405 -2.506593
H -1.718614 -2.868862 -2.978501
C -2.508625 -0.755932 -2.898409
H -3.243270 -0.743930 -3.714800
C -2.216639 0.335303 -2.010644
H -2.672485 1.332882 -2.047754
C -3.410305 -1.701100 0.994919
H -2.747389 -1.619394 1.865588
C -3.562181 -2.864251 0.162012
H -3.039379 -3.821819 0.288625
C -4.500693 -2.544692 -0.883404
H -4.815239 -3.213962 -1.695399
C -4.931695 -1.182854 -0.693409
H -5.633037 -0.633284 -1.335547
C -4.255763 -0.659567 0.465259
H -4.352239 0.357408 0.867051
C 0.394346 2.311573 -0.890227
C 0.914581 3.442634 -0.216005
H 0.853460 3.504825 0.882713
C 1.500682 4.496822 -0.935363
H 1.892529 5.373614 -0.395584
C 1.588325 4.433140 -2.339260
H 2.048338 5.259888 -2.903368
C 1.085458 3.308869 -3.015951
H 1.148102 3.250072 -4.114304
C 0.491673 2.253338 -2.297211
H 0.089476 1.386763 -2.844090
C -1.625059 1.825180 1.084033
C -1.952461 1.460112 2.407668
H -1.399738 0.657043 2.914057
C -2.991013 2.114887 3.095198
H -3.230449 1.816996 4.128311
C -3.715680 3.144942 2.470866
H -4.527187 3.658235 3.010679
C -3.391480 3.522735 1.154759
H -3.946812 4.334592 0.658615
C -2.351520 2.872284 0.468733
H -2.097430 3.195392 -0.552713
C 0.106944 -2.393092 -0.637445
H -0.320104 -2.675210 0.335864
C 2.088953 -1.119857 -1.472539
H 2.550333 -1.930855 -2.072016
H 1.327477 -0.630823 -2.107823
C 3.115887 -0.110408 -1.057206
C 3.737030 1.497616 0.520059
C 4.862266 1.861991 -0.226174
C 5.117392 1.195782 -1.437385
C 4.226326 0.197673 -1.852579
C 0.418483 -3.685206 -1.396358
H -0.497114 -4.305593 -1.468451
H 0.795379 -3.505740 -2.424437
H 1.177500 -4.258600 -0.827382
C 1.421909 1.030772 2.516797
C 0.171886 -1.132700 2.260728
H 2.581503 -1.031524 2.038731
H 2.630099 -1.953946 1.665057
H 1.686810 -2.027018 -0.073850
O 2.798538 -3.118951 1.124551
C 4.132802 -3.257980 0.788321
H 4.294262 -3.472448 -0.323580
H 4.721852 -2.298362 0.942136
H 4.386125 -0.351267 -2.792734
H 5.528247 2.653280 0.147774
H 3.514357 1.989450 1.477959
C 4.855563 -4.360196 1.574213
H 4.361778 -5.342353 1.397235
H 5.929989 -4.463551 1.303455
H 4.789185 -4.152714 2.663658
H 5.998557 1.449426 -2.046365
78
Burette MDSmooth frame 18
Fe -2.897678 -1.263587 -0.954629
Mn 1.318268 -0.223550 1.263357
P -0.292970 0.922740 0.141971
O 1.473152 1.867227 3.345032
O -0.520260 -1.772002 2.964731
N 1.373647 -1.662671 -0.282389
N 2.871916 0.526287 0.121617
C -1.206850 -0.106975 -1.067984
C -0.893952 -1.501109 -1.372091
C -1.701577 -1.876959 -2.508909
H -1.721406 -2.867143 -2.981371
C -2.510827 -0.754047 -2.899864
H -3.245696 -0.741387 -3.716042
C -2.218299 0.336606 -2.011563
H -2.673887 1.334328 -2.047982
C -3.411673 -1.701176 0.993180
H -2.748491 -1.620140 1.863710
C -3.564094 -2.863814 0.159658
H -3.041514 -3.821593 0.285584
C -4.502812 -2.543412 -0.885314
H -4.817764 -3.212138 -1.697599
C -4.933395 -1.181566 -0.694428
H -5.634769 -0.631446 -1.336059
C -4.256999 -0.659117 0.464346
H -4.353089 0.357657 0.866740
C 0.393529 2.311541 -0.890760
C 0.914256 3.442080 -0.216045
H 0.853460 3.503666 0.882725
C 1.500439 4.496518 -0.934970
H 1.892673 5.372898 -0.394805
C 1.587673 4.433606 -2.338927
H 2.047750 5.260549 -2.902696
C 1.084315 3.309854 -3.016112
H 1.146636 3.251661 -4.114516
C 0.490448 2.254076 -2.297804
H 0.087865 1.387918 -2.845060
C -1.625454 1.824574 1.083789
C -1.952584 1.458844 2.407309
H -1.399936 0.655341 2.913088
C -2.990768 2.113509 3.095499
H -3.229996 1.815098 4.128510
C -3.715332 3.144111 2.471953
H -4.526551 3.657316 3.012282
C -3.391399 3.522561 1.155969
H -3.946651 4.334848 0.660440
C -2.351806 2.872219 0.469285
H -2.097915 3.195837 -0.552049
C 0.109839 -2.388280 -0.640560
H -0.321919 -2.673288 0.332709
C 2.082144 -1.120012 -1.473035
H 2.548045 -1.928342 -2.075553
H 1.335344 -0.623062 -2.125001
C 3.111920 -0.111076 -1.059872
C 3.736388 1.495890 0.518129
C 4.861513 1.860385 -0.228212
C 5.116122 1.194793 -1.439871
C 4.224672 0.197158 -1.855380
C 0.415913 -3.684955 -1.400289
H -0.499870 -4.305057 -1.474930
H 0.792571 -3.505009 -2.428371
H 1.174937 -4.261330 -0.834302
C 1.421700 1.028538 2.515250
C 0.171025 -1.134455 2.255855
H 2.595299 -0.984710 2.067557
H 2.596921 -1.862794 1.690850
H 1.810168 -2.155306 0.035769
O 2.794376 -3.133033 1.117827
C 4.135865 -3.259964 0.778686
H 4.289596 -3.473845 -0.328477
H 4.712947 -2.298138 0.940232
H 4.384060 -0.351292 -2.795890
H 5.527811 2.651283 0.145996
H 3.514115 1.987241 1.476369
C 4.851188 -4.362817 1.568656
H 4.359544 -5.344741 1.388809
H 5.925509 -4.461400 1.297536
H 4.785170 -4.155934 2.658237
H 5.997185 1.448544 -2.048953
78
Burette MDSmooth frame 19
Fe -2.899701 -1.262586 -0.956472
Mn 1.317258 -0.225239 1.260847
P -0.293986 0.922253 0.140701
O 1.473432 1.864163 3.343806
O -0.521202 -1.774219 2.961814
N 1.368946 -1.655099 -0.288610
N 2.870774 0.524856 0.119096
C -1.208558 -0.106414 -1.069622
C -0.896179 -1.500448 -1.374718
C -1.704276 -1.875329 -2.511520
H -1.724553 -2.865205 -2.984607
C -2.513309 -0.751923 -2.901503
H -3.248432 -0.738519 -3.717442
C -2.220171 0.338075 -2.012600
H -2.675468 1.335959 -2.048239
C -3.413214 -1.701261 0.991220
H -2.749734 -1.620981 1.861592
C -3.566250 -2.863321 0.157005
H -3.043921 -3.821339 0.282155
C -4.505201 -2.541969 -0.887467
H -4.820611 -3.210082 -1.700079
C -4.935311 -1.180115 -0.695576
H -5.636720 -0.629373 -1.336635
C -4.258391 -0.658609 0.463317
H -4.354047 0.357937 0.866389
C 0.392609 2.311505 -0.891361
C 0.913891 3.441456 -0.216089
H 0.853459 3.502360 0.882739
C 1.500166 4.496174 -0.934527
H 1.892836 5.372092 -0.393927
C 1.586939 4.434132 -2.338551
H 2.047088 5.261295 -2.901938
C 1.083027 3.310964 -3.016295
H 1.144984 3.253452 -4.114755
C 0.489066 2.254908 -2.298472
H 0.086048 1.389221 -2.846154
C -1.625900 1.823890 1.083514
C -1.952723 1.457415 2.406903
H -1.400159 0.653422 2.911996
C -2.990492 2.111956 3.095838
H -3.229484 1.812958 4.128734
C -3.714941 3.143174 2.473178
H -4.525833 3.656280 3.014090
C -3.391307 3.522365 1.157333
H -3.946470 4.335136 0.662497
C -2.352128 2.872147 0.469907
H -2.098461 3.196339 -0.551301
C 0.113102 -2.382855 -0.644072
H -0.323964 -2.671122 0.329151
C 2.074468 -1.120187 -1.473594
H 2.545466 -1.925509 -2.079540
H 1.344213 -0.614312 -2.144368
C 3.107447 -0.111828 -1.062876
C 3.735664 1.493944 0.515954
C 4.860665 1.858574 -0.230510
C 5.114690 1.193678 -1.442673
C 4.222807 0.196577 -1.858537
C 0.413016 -3.684673 -1.404721
H -0.502976 -4.304452 -1.482234
H 0.789404 -3.504185 -2.432807
H 1.172047 -4.264406 -0.842103
C 1.421464 1.026019 2.513506
C 0.170055 -1.136433 2.250360
H 2.610855 -0.931935 2.100057
H 2.559519 -1.760030 1.719936
H 1.949240 -2.299946 0.159342
O 2.789684 -3.148909 1.110246
C 4.139318 -3.262200 0.767824
H 4.284335 -3.475420 -0.333997
H 4.702908 -2.297884 0.938087
H 4.381732 -0.351321 -2.799447
H 5.527320 2.649031 0.143993
H 3.513843 1.984751 1.474577
C 4.846256 -4.365771 1.562392
H 4.357026 -5.347434 1.379309
H 5.920458 -4.458976 1.290863
H 4.780644 -4.159563 2.652125
H 5.995638 1.447551 -2.051872
78
Burette MDSmooth frame 20
Fe -2.901061 -1.261913 -0.957711
Mn 1.316580 -0.226375 1.259160
P -0.294668 0.921926 0.139847
O 1.473620 1.862103 3.342982
O -0.521835 -1.775710 2.959853
N 1.365785 -1.650008 -0.292793
N 2.870006 0.523893 0.117401
C -1.209707 -0.106036 -1.070724
C -0.897676 -1.500004 -1.376483
C -1.706090 -1.874233 -2.513275
H -1.726669 -2.863902 -2.986783
C -2.514977 -0.750494 -2.902606
H -3.250271 -0.736591 -3.718383
C -2.221429 0.339063 -2.013297
H -2.676531 1.337055 -2.048411
C -3.414251 -1.701318 0.989902
H -2.750569 -1.621547 1.860168
C -3.567700 -2.862990 0.155221
H -3.045539 -3.821168 0.279850
C -4.506806 -2.540999 -0.888914
H -4.822525 -3.208699 -1.701746
C -4.936599 -1.179139 -0.696349
H -5.638033 -0.627979 -1.337023
C -4.259328 -0.658268 0.462625
H -4.354691 0.358125 0.866154
C 0.391990 2.311481 -0.891766
C 0.913645 3.441037 -0.216120
H 0.853459 3.501481 0.882748
C 1.499983 4.495944 -0.934230
H 1.892945 5.371549 -0.393337
C 1.586445 4.434485 -2.338299
H 2.046643 5.261796 -2.901429
C 1.082161 3.311710 -3.016417
H 1.143873 3.254657 -4.114916
C 0.488137 2.255467 -2.298921
H 0.084827 1.390097 -2.846889
C -1.626199 1.823430 1.083329
C -1.952816 1.456454 2.406630
H -1.400308 0.652132 2.911261
C -2.990306 2.110911 3.096066
H -3.229140 1.811519 4.128885
C -3.714677 3.142545 2.474001
H -4.525351 3.655584 3.015306
C -3.391246 3.522234 1.158250
H -3.946348 4.335330 0.663880
C -2.352344 2.872098 0.470325
H -2.098828 3.196677 -0.550798
C 0.115296 -2.379207 -0.646433
H -0.325340 -2.669665 0.326759
C 2.069307 -1.120305 -1.473970
H 2.543732 -1.923604 -2.082221
H 1.350176 -0.608430 -2.157388
C 3.104439 -0.112334 -1.064896
C 3.735178 1.492635 0.514491
C 4.860094 1.857356 -0.232055
C 5.113727 1.192928 -1.444558
C 4.221553 0.196187 -1.860660
C 0.411069 -3.684482 -1.407700
H -0.505065 -4.304046 -1.487145
H 0.787275 -3.503630 -2.435789
H 1.170105 -4.266475 -0.847347
C 1.421306 1.024325 2.512334
C 0.169402 -1.137763 2.246666
H 2.621313 -0.896453 2.121907
H 2.534373 -1.690940 1.739489
H 2.042741 -2.397188 0.242423
O 2.786529 -3.159583 1.105149
C 4.141640 -3.263703 0.760521
H 4.280798 -3.476478 -0.337708
H 4.696158 -2.297713 0.936645
H 4.380168 -0.351340 -2.801838
H 5.526990 2.647518 0.142645
H 3.513659 1.983077 1.473372
C 4.842940 -4.367757 1.558180
H 4.355332 -5.349244 1.372923
H 5.917063 -4.457346 1.286377
H 4.777601 -4.162003 2.648016
H 5.994597 1.446883 -2.053834
